Version identifier: 20.1.0.0 | 2020-11-10 | 9bedb6d68
Tried aggregator 2 times.
MIP Presolve eliminated 1984 rows and 1064 columns.
MIP Presolve modified 4790 coefficients.
Aggregator did 198 substitutions.
Reduced MIP has 2837 rows, 2263 columns, and 9352 nonzeros.
Reduced MIP has 490 binaries, 1773 generals, 0 SOSs, and 0 indicators.
Presolve time = 0.03 sec. (11.62 ticks)
Probing fixed 60 vars, tightened 594 bounds.
Probing time = 0.00 sec. (2.12 ticks)
Tried aggregator 2 times.
Detecting symmetries...
MIP Presolve eliminated 1230 rows and 116 columns.
MIP Presolve modified 255 coefficients.
Aggregator did 36 substitutions.
Reduced MIP has 1571 rows, 2111 columns, and 5254 nonzeros.
Reduced MIP has 630 binaries, 1481 generals, 0 SOSs, and 0 indicators.
Presolve time = 0.02 sec. (7.71 ticks)
Probing time = 0.00 sec. (0.50 ticks)
Clique table members: 125.
MIP emphasis: balance optimality and feasibility.
MIP search method: dynamic search.
Parallel mode: deterministic, using up to 24 threads.
Root relaxation solution time = 0.03 sec. (4.99 ticks)

        Nodes                                         Cuts/
   Node  Left     Objective  IInf  Best Integer    Best Bound    ItCnt     Gap

      0     0        0.0000    70                      0.0000      490         
      0     0        0.0000   108                   Cuts: 189      643         
*     0+    0                           17.0000        0.0000           100.00%
      0     0        cutoff             17.0000       17.0000      821    0.00%
Elapsed time = 0.61 sec. (145.40 ticks, tree = 0.01 MB, solutions = 1)

Implied bound cuts applied:  85
Flow cuts applied:  8
Mixed integer rounding cuts applied:  30
Zero-half cuts applied:  98
Lift and project cuts applied:  28
Gomory fractional cuts applied:  60

Root node processing (before b&c):
  Real time             =    0.61 sec. (145.54 ticks)
Parallel b&c, 24 threads:
  Real time             =    0.00 sec. (0.00 ticks)
  Sync time (average)   =    0.00 sec.
  Wait time (average)   =    0.00 sec.
                          ------------
Total (root+branch&cut) =    0.61 sec. (145.54 ticks)

Solution status = Optimal
Solution LB = 17
Solution UB = 17
Runtime = 0.612902 seconds
	Command being timed: "/home/min/git_repos/CS598MEBProject/CNT-ILP/build/cnt -s 2 ./output/k8_n30/simC_c1_k8_n30_u3_s3_del04.input-right.cnp"
	User time (seconds): 6.95
	System time (seconds): 0.09
	Percent of CPU this job got: 1078%
	Elapsed (wall clock) time (h:mm:ss or m:ss): 0:00.65
	Average shared text size (kbytes): 0
	Average unshared data size (kbytes): 0
	Average stack size (kbytes): 0
	Average total size (kbytes): 0
	Maximum resident set size (kbytes): 138532
	Average resident set size (kbytes): 0
	Major (requiring I/O) page faults: 0
	Minor (reclaiming a frame) page faults: 32708
	Voluntary context switches: 5884
	Involuntary context switches: 1011
	Swaps: 0
	File system inputs: 0
	File system outputs: 16
	Socket messages sent: 0
	Socket messages received: 0
	Signals delivered: 0
	Page size (bytes): 4096
	Exit status: 0
